\* Source Pyomo model name=unknown *\

max 
x1:
+ [
+2 x2 ^ 2
+2 x3 ^ 2
+2 x4 ^ 2
+2 x5 ^ 2
+2 x6 ^ 2
+2 x7 ^ 2
+2 x8 ^ 2
+2 x9 ^ 2
+2 x10 ^ 2
+2 x11 ^ 2
+2 x12 ^ 2
+2 x13 ^ 2
+2 x14 ^ 2
+2 x15 ^ 2
+2 x16 ^ 2
+2 x17 ^ 2
+2 x18 ^ 2
+2 x19 ^ 2
+2 x20 ^ 2
+2 x21 ^ 2
+2 x22 ^ 2
+2 x23 ^ 2
+2 x24 ^ 2
] / 2

s.t.

c_e_x25_:
+1 x26
+1 x27
+1 x28
+1 x29
+1 x30
+1 x31
+1 x32
+1 x33
+1 x34
+1 x35
+1 x36
+1 x37
+1 x38
+1 x39
+1 x40
+1 x41
+1 x42
+1 x43
+1 x44
+1 x45
+1 x46
+1 x47
+1 x48
+1 x49
+1 x50
+1 x51
+1 x52
+1 x53
+1 x54
+1 x55
+1 x56
+1 x57
+1 x58
+1 x59
+1 x60
+1 x61
+1 x62
+1 x63
+1 x64
+1 x65
+1 x66
+1 x67
+1 x68
+1 x69
+1 x70
+1 x71
+1 x72
+1 x73
+1 x74
+1 x75
+1 x76
+1 x77
+1 x78
+1 x79
+1 x80
+1 x81
+1 x82
+1 x83
+1 x84
+1 x85
+1 x86
+1 x87
+1 x88
+1 x89
+1 x90
+1 x91
+1 x92
+1 x93
+1 x94
+1 x95
+1 x96
+1 x97
+1 x98
+1 x99
+1 x100
+1 x101
+1 x102
+1 x103
+1 x104
+1 x105
+1 x106
+1 x107
+1 x108
+1 x109
+1 x110
+1 x111
+1 x112
+1 x113
+1 x114
+1 x115
+1 x116
+1 x117
+1 x118
+1 x119
+1 x120
+1 x121
+1 x122
+1 x123
+1 x124
+1 x125
+1 x126
+1 x127
+1 x128
+1 x129
+1 x130
+1 x131
+1 x132
+1 x133
+1 x134
+1 x135
+1 x136
+1 x137
+1 x138
+1 x139
+1 x140
+1 x141
+1 x142
+1 x143
+1 x144
+1 x145
+1 x146
+1 x147
+1 x148
+1 x149
+1 x150
+1 x151
+1 x152
+1 x153
+1 x154
+1 x155
+1 x156
+1 x157
+1 x158
+1 x159
+1 x160
+1 x161
+1 x162
+1 x163
+1 x164
+1 x165
+1 x166
+1 x167
+1 x168
+1 x169
+1 x170
+1 x171
+1 x172
+1 x173
+1 x174
+1 x175
+1 x176
+1 x177
+1 x178
+1 x179
+1 x180
+1 x181
+1 x182
+1 x183
+1 x184
+1 x185
+1 x186
+1 x187
+1 x188
+1 x189
+1 x190
+1 x191
+1 x192
+1 x193
+1 x194
+1 x195
+1 x196
+1 x197
+1 x198
+1 x199
+1 x200
+1 x201
+1 x202
+1 x203
+1 x204
+1 x205
+1 x206
+1 x207
+1 x208
+1 x209
+1 x210
+1 x211
+1 x212
+1 x213
+1 x214
+1 x215
+1 x216
+1 x217
+1 x218
+1 x219
+1 x220
+1 x221
+1 x222
+1 x223
+1 x224
+1 x225
+1 x226
+1 x227
+1 x228
+1 x229
+1 x230
+1 x231
+1 x232
+1 x233
+1 x234
+1 x235
+1 x236
+1 x237
+1 x238
+1 x239
+1 x240
+1 x241
+1 x242
+1 x243
+1 x244
+1 x245
+1 x246
+1 x247
+1 x248
+1 x249
+1 x250
+1 x251
+1 x252
+1 x253
+1 x254
+1 x255
+1 x256
+1 x257
+1 x258
+1 x259
+1 x260
+1 x261
+1 x262
+1 x263
+1 x264
+1 x265
+1 x266
+1 x267
+1 x268
+1 x269
+1 x270
+1 x271
+1 x272
+1 x273
+1 x274
+1 x275
+1 x276
+1 x277
+1 x278
+1 x279
+1 x280
+1 x281
+1 x282
+1 x283
+1 x284
+1 x285
+1 x286
+1 x287
+1 x288
+1 x289
+1 x290
+1 x291
+1 x292
+1 x293
+1 x294
+1 x295
+1 x296
+1 x297
+1 x298
+1 x299
+1 x300
+1 x301
+1 x302
+1 x303
+1 x304
+1 x305
+1 x306
+1 x307
+1 x308
+1 x309
+1 x310
+1 x311
+1 x312
+1 x313
+1 x314
+1 x315
+1 x316
+1 x317
+1 x318
+1 x319
+1 x320
+1 x321
+1 x322
+1 x323
+1 x324
+1 x325
+1 x326
+1 x327
+1 x328
+1 x329
+1 x330
+1 x331
+1 x332
+1 x333
+1 x334
+1 x335
+1 x336
+1 x337
+1 x338
+1 x339
+1 x340
+1 x341
+1 x342
+1 x343
+1 x344
+1 x345
+1 x346
+1 x347
+1 x348
+1 x349
+1 x350
+1 x351
+1 x352
+1 x353
+1 x354
+1 x355
+1 x356
+1 x357
+1 x358
+1 x359
+1 x360
+1 x361
+1 x362
+1 x363
+1 x364
+1 x365
+1 x366
+1 x367
+1 x368
+1 x369
+1 x370
+1 x371
+1 x372
+1 x373
+1 x374
+1 x375
+1 x376
+1 x377
+1 x378
+1 x379
+1 x380
+1 x381
+1 x382
+1 x383
+1 x384
+1 x385
+1 x386
+1 x387
+1 x388
+1 x389
+1 x390
+1 x391
+1 x392
+1 x393
+1 x394
+1 x395
+1 x396
+1 x397
+1 x398
+1 x399
+1 x400
+1 x401
+1 x402
+1 x403
+1 x404
+1 x405
+1 x406
+1 x407
+1 x408
+1 x409
+1 x410
+1 x411
+1 x412
+1 x413
+1 x414
+1 x415
+1 x416
+1 x417
+1 x418
+1 x419
+1 x420
+1 x421
+1 x422
+1 x423
+1 x424
+1 x425
+1 x426
+1 x427
+1 x428
+1 x429
+1 x430
+1 x431
+1 x432
+1 x433
+1 x434
+1 x435
+1 x436
+1 x437
+1 x438
+1 x439
+1 x440
+1 x441
+1 x442
+1 x443
+1 x444
+1 x445
+1 x446
+1 x447
+1 x448
+1 x449
+1 x450
+1 x451
+1 x452
+1 x453
+1 x454
+1 x455
+1 x456
+1 x457
+1 x458
+1 x459
+1 x460
+1 x461
+1 x462
+1 x463
+1 x464
+1 x465
+1 x466
+1 x467
+1 x468
+1 x469
+1 x470
+1 x471
+1 x472
+1 x473
+1 x474
+1 x475
+1 x476
+1 x477
+1 x478
+1 x479
+1 x480
+1 x481
+1 x482
+1 x483
+1 x484
+1 x485
+1 x486
+1 x487
+1 x488
+1 x489
+1 x490
+1 x491
+1 x492
+1 x493
+1 x494
+1 x495
+1 x496
+1 x497
+1 x498
+1 x499
+1 x500
+1 x501
+1 x502
+1 x503
+1 x504
+1 x505
+1 x506
+1 x507
+1 x508
+1 x509
+1 x510
+1 x511
+1 x512
+1 x513
+1 x514
+1 x515
+1 x516
+1 x517
+1 x518
+1 x519
+1 x520
+1 x521
+1 x522
+1 x523
+1 x524
+1 x525
+1 x526
+1 x527
+1 x528
+1 x529
+1 x530
+1 x531
= 22

c_e_x532_:
+1 x2
-1 x48
-1 x70
-1 x92
-1 x114
-1 x136
-1 x158
-1 x180
-1 x202
-1 x224
-1 x246
-1 x268
-1 x290
-1 x312
-1 x334
-1 x356
-1 x378
-1 x400
-1 x422
-1 x444
-1 x466
-1 x488
-1 x510
= 0

c_e_x533_:
+1 x3
-1 x26
-1 x71
-1 x93
-1 x115
-1 x137
-1 x159
-1 x181
-1 x203
-1 x225
-1 x247
-1 x269
-1 x291
-1 x313
-1 x335
-1 x357
-1 x379
-1 x401
-1 x423
-1 x445
-1 x467
-1 x489
-1 x511
= 0

c_e_x534_:
+1 x4
-1 x27
-1 x49
-1 x94
-1 x116
-1 x138
-1 x160
-1 x182
-1 x204
-1 x226
-1 x248
-1 x270
-1 x292
-1 x314
-1 x336
-1 x358
-1 x380
-1 x402
-1 x424
-1 x446
-1 x468
-1 x490
-1 x512
= 0

c_e_x535_:
+1 x5
-1 x28
-1 x50
-1 x72
-1 x117
-1 x139
-1 x161
-1 x183
-1 x205
-1 x227
-1 x249
-1 x271
-1 x293
-1 x315
-1 x337
-1 x359
-1 x381
-1 x403
-1 x425
-1 x447
-1 x469
-1 x491
-1 x513
= 0

c_e_x536_:
+1 x6
-1 x29
-1 x51
-1 x73
-1 x95
-1 x140
-1 x162
-1 x184
-1 x206
-1 x228
-1 x250
-1 x272
-1 x294
-1 x316
-1 x338
-1 x360
-1 x382
-1 x404
-1 x426
-1 x448
-1 x470
-1 x492
-1 x514
= 0

c_e_x537_:
+1 x7
-1 x30
-1 x52
-1 x74
-1 x96
-1 x118
-1 x163
-1 x185
-1 x207
-1 x229
-1 x251
-1 x273
-1 x295
-1 x317
-1 x339
-1 x361
-1 x383
-1 x405
-1 x427
-1 x449
-1 x471
-1 x493
-1 x515
= 0

c_e_x538_:
+1 x8
-1 x31
-1 x53
-1 x75
-1 x97
-1 x119
-1 x141
-1 x186
-1 x208
-1 x230
-1 x252
-1 x274
-1 x296
-1 x318
-1 x340
-1 x362
-1 x384
-1 x406
-1 x428
-1 x450
-1 x472
-1 x494
-1 x516
= 0

c_e_x539_:
+1 x9
-1 x32
-1 x54
-1 x76
-1 x98
-1 x120
-1 x142
-1 x164
-1 x209
-1 x231
-1 x253
-1 x275
-1 x297
-1 x319
-1 x341
-1 x363
-1 x385
-1 x407
-1 x429
-1 x451
-1 x473
-1 x495
-1 x517
= 0

c_e_x540_:
+1 x10
-1 x33
-1 x55
-1 x77
-1 x99
-1 x121
-1 x143
-1 x165
-1 x187
-1 x232
-1 x254
-1 x276
-1 x298
-1 x320
-1 x342
-1 x364
-1 x386
-1 x408
-1 x430
-1 x452
-1 x474
-1 x496
-1 x518
= 0

c_e_x541_:
+1 x11
-1 x34
-1 x56
-1 x78
-1 x100
-1 x122
-1 x144
-1 x166
-1 x188
-1 x210
-1 x255
-1 x277
-1 x299
-1 x321
-1 x343
-1 x365
-1 x387
-1 x409
-1 x431
-1 x453
-1 x475
-1 x497
-1 x519
= 0

c_e_x542_:
+1 x12
-1 x35
-1 x57
-1 x79
-1 x101
-1 x123
-1 x145
-1 x167
-1 x189
-1 x211
-1 x233
-1 x278
-1 x300
-1 x322
-1 x344
-1 x366
-1 x388
-1 x410
-1 x432
-1 x454
-1 x476
-1 x498
-1 x520
= 0

c_e_x543_:
+1 x13
-1 x36
-1 x58
-1 x80
-1 x102
-1 x124
-1 x146
-1 x168
-1 x190
-1 x212
-1 x234
-1 x256
-1 x301
-1 x323
-1 x345
-1 x367
-1 x389
-1 x411
-1 x433
-1 x455
-1 x477
-1 x499
-1 x521
= 0

c_e_x544_:
+1 x14
-1 x37
-1 x59
-1 x81
-1 x103
-1 x125
-1 x147
-1 x169
-1 x191
-1 x213
-1 x235
-1 x257
-1 x279
-1 x324
-1 x346
-1 x368
-1 x390
-1 x412
-1 x434
-1 x456
-1 x478
-1 x500
-1 x522
= 0

c_e_x545_:
+1 x15
-1 x38
-1 x60
-1 x82
-1 x104
-1 x126
-1 x148
-1 x170
-1 x192
-1 x214
-1 x236
-1 x258
-1 x280
-1 x302
-1 x347
-1 x369
-1 x391
-1 x413
-1 x435
-1 x457
-1 x479
-1 x501
-1 x523
= 0

c_e_x546_:
+1 x16
-1 x39
-1 x61
-1 x83
-1 x105
-1 x127
-1 x149
-1 x171
-1 x193
-1 x215
-1 x237
-1 x259
-1 x281
-1 x303
-1 x325
-1 x370
-1 x392
-1 x414
-1 x436
-1 x458
-1 x480
-1 x502
-1 x524
= 0

c_e_x547_:
+1 x17
-1 x40
-1 x62
-1 x84
-1 x106
-1 x128
-1 x150
-1 x172
-1 x194
-1 x216
-1 x238
-1 x260
-1 x282
-1 x304
-1 x326
-1 x348
-1 x393
-1 x415
-1 x437
-1 x459
-1 x481
-1 x503
-1 x525
= 0

c_e_x548_:
+1 x18
-1 x41
-1 x63
-1 x85
-1 x107
-1 x129
-1 x151
-1 x173
-1 x195
-1 x217
-1 x239
-1 x261
-1 x283
-1 x305
-1 x327
-1 x349
-1 x371
-1 x416
-1 x438
-1 x460
-1 x482
-1 x504
-1 x526
= 0

c_e_x549_:
+1 x19
-1 x42
-1 x64
-1 x86
-1 x108
-1 x130
-1 x152
-1 x174
-1 x196
-1 x218
-1 x240
-1 x262
-1 x284
-1 x306
-1 x328
-1 x350
-1 x372
-1 x394
-1 x439
-1 x461
-1 x483
-1 x505
-1 x527
= 0

c_e_x550_:
+1 x20
-1 x43
-1 x65
-1 x87
-1 x109
-1 x131
-1 x153
-1 x175
-1 x197
-1 x219
-1 x241
-1 x263
-1 x285
-1 x307
-1 x329
-1 x351
-1 x373
-1 x395
-1 x417
-1 x462
-1 x484
-1 x506
-1 x528
= 0

c_e_x551_:
+1 x21
-1 x44
-1 x66
-1 x88
-1 x110
-1 x132
-1 x154
-1 x176
-1 x198
-1 x220
-1 x242
-1 x264
-1 x286
-1 x308
-1 x330
-1 x352
-1 x374
-1 x396
-1 x418
-1 x440
-1 x485
-1 x507
-1 x529
= 0

c_e_x552_:
+1 x22
-1 x45
-1 x67
-1 x89
-1 x111
-1 x133
-1 x155
-1 x177
-1 x199
-1 x221
-1 x243
-1 x265
-1 x287
-1 x309
-1 x331
-1 x353
-1 x375
-1 x397
-1 x419
-1 x441
-1 x463
-1 x508
-1 x530
= 0

c_e_x553_:
+1 x23
-1 x46
-1 x68
-1 x90
-1 x112
-1 x134
-1 x156
-1 x178
-1 x200
-1 x222
-1 x244
-1 x266
-1 x288
-1 x310
-1 x332
-1 x354
-1 x376
-1 x398
-1 x420
-1 x442
-1 x464
-1 x486
-1 x531
= 0

c_e_x554_:
+1 x24
-1 x47
-1 x69
-1 x91
-1 x113
-1 x135
-1 x157
-1 x179
-1 x201
-1 x223
-1 x245
-1 x267
-1 x289
-1 x311
-1 x333
-1 x355
-1 x377
-1 x399
-1 x421
-1 x443
-1 x465
-1 x487
-1 x509
= 0

c_e_x555_:
+1 x26
-1 x48
= 0

c_e_x556_:
+1 x27
-1 x70
= 0

c_e_x557_:
+1 x28
-1 x92
= 0

c_e_x558_:
+1 x29
-1 x114
= 0

c_e_x559_:
+1 x30
-1 x136
= 0

c_e_x560_:
+1 x31
-1 x158
= 0

c_e_x561_:
+1 x32
-1 x180
= 0

c_e_x562_:
+1 x33
-1 x202
= 0

c_e_x563_:
+1 x34
-1 x224
= 0

c_e_x564_:
+1 x35
-1 x246
= 0

c_e_x565_:
+1 x36
-1 x268
= 0

c_e_x566_:
+1 x37
-1 x290
= 0

c_e_x567_:
+1 x38
-1 x312
= 0

c_e_x568_:
+1 x39
-1 x334
= 0

c_e_x569_:
+1 x40
-1 x356
= 0

c_e_x570_:
+1 x41
-1 x378
= 0

c_e_x571_:
+1 x42
-1 x400
= 0

c_e_x572_:
+1 x43
-1 x422
= 0

c_e_x573_:
+1 x44
-1 x444
= 0

c_e_x574_:
+1 x45
-1 x466
= 0

c_e_x575_:
+1 x46
-1 x488
= 0

c_e_x576_:
+1 x47
-1 x510
= 0

c_e_x577_:
-1 x26
+1 x48
= 0

c_e_x578_:
+1 x49
-1 x71
= 0

c_e_x579_:
+1 x50
-1 x93
= 0

c_e_x580_:
+1 x51
-1 x115
= 0

c_e_x581_:
+1 x52
-1 x137
= 0

c_e_x582_:
+1 x53
-1 x159
= 0

c_e_x583_:
+1 x54
-1 x181
= 0

c_e_x584_:
+1 x55
-1 x203
= 0

c_e_x585_:
+1 x56
-1 x225
= 0

c_e_x586_:
+1 x57
-1 x247
= 0

c_e_x587_:
+1 x58
-1 x269
= 0

c_e_x588_:
+1 x59
-1 x291
= 0

c_e_x589_:
+1 x60
-1 x313
= 0

c_e_x590_:
+1 x61
-1 x335
= 0

c_e_x591_:
+1 x62
-1 x357
= 0

c_e_x592_:
+1 x63
-1 x379
= 0

c_e_x593_:
+1 x64
-1 x401
= 0

c_e_x594_:
+1 x65
-1 x423
= 0

c_e_x595_:
+1 x66
-1 x445
= 0

c_e_x596_:
+1 x67
-1 x467
= 0

c_e_x597_:
+1 x68
-1 x489
= 0

c_e_x598_:
+1 x69
-1 x511
= 0

c_e_x599_:
-1 x27
+1 x70
= 0

c_e_x600_:
-1 x49
+1 x71
= 0

c_e_x601_:
+1 x72
-1 x94
= 0

c_e_x602_:
+1 x73
-1 x116
= 0

c_e_x603_:
+1 x74
-1 x138
= 0

c_e_x604_:
+1 x75
-1 x160
= 0

c_e_x605_:
+1 x76
-1 x182
= 0

c_e_x606_:
+1 x77
-1 x204
= 0

c_e_x607_:
+1 x78
-1 x226
= 0

c_e_x608_:
+1 x79
-1 x248
= 0

c_e_x609_:
+1 x80
-1 x270
= 0

c_e_x610_:
+1 x81
-1 x292
= 0

c_e_x611_:
+1 x82
-1 x314
= 0

c_e_x612_:
+1 x83
-1 x336
= 0

c_e_x613_:
+1 x84
-1 x358
= 0

c_e_x614_:
+1 x85
-1 x380
= 0

c_e_x615_:
+1 x86
-1 x402
= 0

c_e_x616_:
+1 x87
-1 x424
= 0

c_e_x617_:
+1 x88
-1 x446
= 0

c_e_x618_:
+1 x89
-1 x468
= 0

c_e_x619_:
+1 x90
-1 x490
= 0

c_e_x620_:
+1 x91
-1 x512
= 0

c_e_x621_:
-1 x28
+1 x92
= 0

c_e_x622_:
-1 x50
+1 x93
= 0

c_e_x623_:
-1 x72
+1 x94
= 0

c_e_x624_:
+1 x95
-1 x117
= 0

c_e_x625_:
+1 x96
-1 x139
= 0

c_e_x626_:
+1 x97
-1 x161
= 0

c_e_x627_:
+1 x98
-1 x183
= 0

c_e_x628_:
+1 x99
-1 x205
= 0

c_e_x629_:
+1 x100
-1 x227
= 0

c_e_x630_:
+1 x101
-1 x249
= 0

c_e_x631_:
+1 x102
-1 x271
= 0

c_e_x632_:
+1 x103
-1 x293
= 0

c_e_x633_:
+1 x104
-1 x315
= 0

c_e_x634_:
+1 x105
-1 x337
= 0

c_e_x635_:
+1 x106
-1 x359
= 0

c_e_x636_:
+1 x107
-1 x381
= 0

c_e_x637_:
+1 x108
-1 x403
= 0

c_e_x638_:
+1 x109
-1 x425
= 0

c_e_x639_:
+1 x110
-1 x447
= 0

c_e_x640_:
+1 x111
-1 x469
= 0

c_e_x641_:
+1 x112
-1 x491
= 0

c_e_x642_:
+1 x113
-1 x513
= 0

c_e_x643_:
-1 x29
+1 x114
= 0

c_e_x644_:
-1 x51
+1 x115
= 0

c_e_x645_:
-1 x73
+1 x116
= 0

c_e_x646_:
-1 x95
+1 x117
= 0

c_e_x647_:
+1 x118
-1 x140
= 0

c_e_x648_:
+1 x119
-1 x162
= 0

c_e_x649_:
+1 x120
-1 x184
= 0

c_e_x650_:
+1 x121
-1 x206
= 0

c_e_x651_:
+1 x122
-1 x228
= 0

c_e_x652_:
+1 x123
-1 x250
= 0

c_e_x653_:
+1 x124
-1 x272
= 0

c_e_x654_:
+1 x125
-1 x294
= 0

c_e_x655_:
+1 x126
-1 x316
= 0

c_e_x656_:
+1 x127
-1 x338
= 0

c_e_x657_:
+1 x128
-1 x360
= 0

c_e_x658_:
+1 x129
-1 x382
= 0

c_e_x659_:
+1 x130
-1 x404
= 0

c_e_x660_:
+1 x131
-1 x426
= 0

c_e_x661_:
+1 x132
-1 x448
= 0

c_e_x662_:
+1 x133
-1 x470
= 0

c_e_x663_:
+1 x134
-1 x492
= 0

c_e_x664_:
+1 x135
-1 x514
= 0

c_e_x665_:
-1 x30
+1 x136
= 0

c_e_x666_:
-1 x52
+1 x137
= 0

c_e_x667_:
-1 x74
+1 x138
= 0

c_e_x668_:
-1 x96
+1 x139
= 0

c_e_x669_:
-1 x118
+1 x140
= 0

c_e_x670_:
+1 x141
-1 x163
= 0

c_e_x671_:
+1 x142
-1 x185
= 0

c_e_x672_:
+1 x143
-1 x207
= 0

c_e_x673_:
+1 x144
-1 x229
= 0

c_e_x674_:
+1 x145
-1 x251
= 0

c_e_x675_:
+1 x146
-1 x273
= 0

c_e_x676_:
+1 x147
-1 x295
= 0

c_e_x677_:
+1 x148
-1 x317
= 0

c_e_x678_:
+1 x149
-1 x339
= 0

c_e_x679_:
+1 x150
-1 x361
= 0

c_e_x680_:
+1 x151
-1 x383
= 0

c_e_x681_:
+1 x152
-1 x405
= 0

c_e_x682_:
+1 x153
-1 x427
= 0

c_e_x683_:
+1 x154
-1 x449
= 0

c_e_x684_:
+1 x155
-1 x471
= 0

c_e_x685_:
+1 x156
-1 x493
= 0

c_e_x686_:
+1 x157
-1 x515
= 0

c_e_x687_:
-1 x31
+1 x158
= 0

c_e_x688_:
-1 x53
+1 x159
= 0

c_e_x689_:
-1 x75
+1 x160
= 0

c_e_x690_:
-1 x97
+1 x161
= 0

c_e_x691_:
-1 x119
+1 x162
= 0

c_e_x692_:
-1 x141
+1 x163
= 0

c_e_x693_:
+1 x164
-1 x186
= 0

c_e_x694_:
+1 x165
-1 x208
= 0

c_e_x695_:
+1 x166
-1 x230
= 0

c_e_x696_:
+1 x167
-1 x252
= 0

c_e_x697_:
+1 x168
-1 x274
= 0

c_e_x698_:
+1 x169
-1 x296
= 0

c_e_x699_:
+1 x170
-1 x318
= 0

c_e_x700_:
+1 x171
-1 x340
= 0

c_e_x701_:
+1 x172
-1 x362
= 0

c_e_x702_:
+1 x173
-1 x384
= 0

c_e_x703_:
+1 x174
-1 x406
= 0

c_e_x704_:
+1 x175
-1 x428
= 0

c_e_x705_:
+1 x176
-1 x450
= 0

c_e_x706_:
+1 x177
-1 x472
= 0

c_e_x707_:
+1 x178
-1 x494
= 0

c_e_x708_:
+1 x179
-1 x516
= 0

c_e_x709_:
-1 x32
+1 x180
= 0

c_e_x710_:
-1 x54
+1 x181
= 0

c_e_x711_:
-1 x76
+1 x182
= 0

c_e_x712_:
-1 x98
+1 x183
= 0

c_e_x713_:
-1 x120
+1 x184
= 0

c_e_x714_:
-1 x142
+1 x185
= 0

c_e_x715_:
-1 x164
+1 x186
= 0

c_e_x716_:
+1 x187
-1 x209
= 0

c_e_x717_:
+1 x188
-1 x231
= 0

c_e_x718_:
+1 x189
-1 x253
= 0

c_e_x719_:
+1 x190
-1 x275
= 0

c_e_x720_:
+1 x191
-1 x297
= 0

c_e_x721_:
+1 x192
-1 x319
= 0

c_e_x722_:
+1 x193
-1 x341
= 0

c_e_x723_:
+1 x194
-1 x363
= 0

c_e_x724_:
+1 x195
-1 x385
= 0

c_e_x725_:
+1 x196
-1 x407
= 0

c_e_x726_:
+1 x197
-1 x429
= 0

c_e_x727_:
+1 x198
-1 x451
= 0

c_e_x728_:
+1 x199
-1 x473
= 0

c_e_x729_:
+1 x200
-1 x495
= 0

c_e_x730_:
+1 x201
-1 x517
= 0

c_e_x731_:
-1 x33
+1 x202
= 0

c_e_x732_:
-1 x55
+1 x203
= 0

c_e_x733_:
-1 x77
+1 x204
= 0

c_e_x734_:
-1 x99
+1 x205
= 0

c_e_x735_:
-1 x121
+1 x206
= 0

c_e_x736_:
-1 x143
+1 x207
= 0

c_e_x737_:
-1 x165
+1 x208
= 0

c_e_x738_:
-1 x187
+1 x209
= 0

c_e_x739_:
+1 x210
-1 x232
= 0

c_e_x740_:
+1 x211
-1 x254
= 0

c_e_x741_:
+1 x212
-1 x276
= 0

c_e_x742_:
+1 x213
-1 x298
= 0

c_e_x743_:
+1 x214
-1 x320
= 0

c_e_x744_:
+1 x215
-1 x342
= 0

c_e_x745_:
+1 x216
-1 x364
= 0

c_e_x746_:
+1 x217
-1 x386
= 0

c_e_x747_:
+1 x218
-1 x408
= 0

c_e_x748_:
+1 x219
-1 x430
= 0

c_e_x749_:
+1 x220
-1 x452
= 0

c_e_x750_:
+1 x221
-1 x474
= 0

c_e_x751_:
+1 x222
-1 x496
= 0

c_e_x752_:
+1 x223
-1 x518
= 0

c_e_x753_:
-1 x34
+1 x224
= 0

c_e_x754_:
-1 x56
+1 x225
= 0

c_e_x755_:
-1 x78
+1 x226
= 0

c_e_x756_:
-1 x100
+1 x227
= 0

c_e_x757_:
-1 x122
+1 x228
= 0

c_e_x758_:
-1 x144
+1 x229
= 0

c_e_x759_:
-1 x166
+1 x230
= 0

c_e_x760_:
-1 x188
+1 x231
= 0

c_e_x761_:
-1 x210
+1 x232
= 0

c_e_x762_:
+1 x233
-1 x255
= 0

c_e_x763_:
+1 x234
-1 x277
= 0

c_e_x764_:
+1 x235
-1 x299
= 0

c_e_x765_:
+1 x236
-1 x321
= 0

c_e_x766_:
+1 x237
-1 x343
= 0

c_e_x767_:
+1 x238
-1 x365
= 0

c_e_x768_:
+1 x239
-1 x387
= 0

c_e_x769_:
+1 x240
-1 x409
= 0

c_e_x770_:
+1 x241
-1 x431
= 0

c_e_x771_:
+1 x242
-1 x453
= 0

c_e_x772_:
+1 x243
-1 x475
= 0

c_e_x773_:
+1 x244
-1 x497
= 0

c_e_x774_:
+1 x245
-1 x519
= 0

c_e_x775_:
-1 x35
+1 x246
= 0

c_e_x776_:
-1 x57
+1 x247
= 0

c_e_x777_:
-1 x79
+1 x248
= 0

c_e_x778_:
-1 x101
+1 x249
= 0

c_e_x779_:
-1 x123
+1 x250
= 0

c_e_x780_:
-1 x145
+1 x251
= 0

c_e_x781_:
-1 x167
+1 x252
= 0

c_e_x782_:
-1 x189
+1 x253
= 0

c_e_x783_:
-1 x211
+1 x254
= 0

c_e_x784_:
-1 x233
+1 x255
= 0

c_e_x785_:
+1 x256
-1 x278
= 0

c_e_x786_:
+1 x257
-1 x300
= 0

c_e_x787_:
+1 x258
-1 x322
= 0

c_e_x788_:
+1 x259
-1 x344
= 0

c_e_x789_:
+1 x260
-1 x366
= 0

c_e_x790_:
+1 x261
-1 x388
= 0

c_e_x791_:
+1 x262
-1 x410
= 0

c_e_x792_:
+1 x263
-1 x432
= 0

c_e_x793_:
+1 x264
-1 x454
= 0

c_e_x794_:
+1 x265
-1 x476
= 0

c_e_x795_:
+1 x266
-1 x498
= 0

c_e_x796_:
+1 x267
-1 x520
= 0

c_e_x797_:
-1 x36
+1 x268
= 0

c_e_x798_:
-1 x58
+1 x269
= 0

c_e_x799_:
-1 x80
+1 x270
= 0

c_e_x800_:
-1 x102
+1 x271
= 0

c_e_x801_:
-1 x124
+1 x272
= 0

c_e_x802_:
-1 x146
+1 x273
= 0

c_e_x803_:
-1 x168
+1 x274
= 0

c_e_x804_:
-1 x190
+1 x275
= 0

c_e_x805_:
-1 x212
+1 x276
= 0

c_e_x806_:
-1 x234
+1 x277
= 0

c_e_x807_:
-1 x256
+1 x278
= 0

c_e_x808_:
+1 x279
-1 x301
= 0

c_e_x809_:
+1 x280
-1 x323
= 0

c_e_x810_:
+1 x281
-1 x345
= 0

c_e_x811_:
+1 x282
-1 x367
= 0

c_e_x812_:
+1 x283
-1 x389
= 0

c_e_x813_:
+1 x284
-1 x411
= 0

c_e_x814_:
+1 x285
-1 x433
= 0

c_e_x815_:
+1 x286
-1 x455
= 0

c_e_x816_:
+1 x287
-1 x477
= 0

c_e_x817_:
+1 x288
-1 x499
= 0

c_e_x818_:
+1 x289
-1 x521
= 0

c_e_x819_:
-1 x37
+1 x290
= 0

c_e_x820_:
-1 x59
+1 x291
= 0

c_e_x821_:
-1 x81
+1 x292
= 0

c_e_x822_:
-1 x103
+1 x293
= 0

c_e_x823_:
-1 x125
+1 x294
= 0

c_e_x824_:
-1 x147
+1 x295
= 0

c_e_x825_:
-1 x169
+1 x296
= 0

c_e_x826_:
-1 x191
+1 x297
= 0

c_e_x827_:
-1 x213
+1 x298
= 0

c_e_x828_:
-1 x235
+1 x299
= 0

c_e_x829_:
-1 x257
+1 x300
= 0

c_e_x830_:
-1 x279
+1 x301
= 0

c_e_x831_:
+1 x302
-1 x324
= 0

c_e_x832_:
+1 x303
-1 x346
= 0

c_e_x833_:
+1 x304
-1 x368
= 0

c_e_x834_:
+1 x305
-1 x390
= 0

c_e_x835_:
+1 x306
-1 x412
= 0

c_e_x836_:
+1 x307
-1 x434
= 0

c_e_x837_:
+1 x308
-1 x456
= 0

c_e_x838_:
+1 x309
-1 x478
= 0

c_e_x839_:
+1 x310
-1 x500
= 0

c_e_x840_:
+1 x311
-1 x522
= 0

c_e_x841_:
-1 x38
+1 x312
= 0

c_e_x842_:
-1 x60
+1 x313
= 0

c_e_x843_:
-1 x82
+1 x314
= 0

c_e_x844_:
-1 x104
+1 x315
= 0

c_e_x845_:
-1 x126
+1 x316
= 0

c_e_x846_:
-1 x148
+1 x317
= 0

c_e_x847_:
-1 x170
+1 x318
= 0

c_e_x848_:
-1 x192
+1 x319
= 0

c_e_x849_:
-1 x214
+1 x320
= 0

c_e_x850_:
-1 x236
+1 x321
= 0

c_e_x851_:
-1 x258
+1 x322
= 0

c_e_x852_:
-1 x280
+1 x323
= 0

c_e_x853_:
-1 x302
+1 x324
= 0

c_e_x854_:
+1 x325
-1 x347
= 0

c_e_x855_:
+1 x326
-1 x369
= 0

c_e_x856_:
+1 x327
-1 x391
= 0

c_e_x857_:
+1 x328
-1 x413
= 0

c_e_x858_:
+1 x329
-1 x435
= 0

c_e_x859_:
+1 x330
-1 x457
= 0

c_e_x860_:
+1 x331
-1 x479
= 0

c_e_x861_:
+1 x332
-1 x501
= 0

c_e_x862_:
+1 x333
-1 x523
= 0

c_e_x863_:
-1 x39
+1 x334
= 0

c_e_x864_:
-1 x61
+1 x335
= 0

c_e_x865_:
-1 x83
+1 x336
= 0

c_e_x866_:
-1 x105
+1 x337
= 0

c_e_x867_:
-1 x127
+1 x338
= 0

c_e_x868_:
-1 x149
+1 x339
= 0

c_e_x869_:
-1 x171
+1 x340
= 0

c_e_x870_:
-1 x193
+1 x341
= 0

c_e_x871_:
-1 x215
+1 x342
= 0

c_e_x872_:
-1 x237
+1 x343
= 0

c_e_x873_:
-1 x259
+1 x344
= 0

c_e_x874_:
-1 x281
+1 x345
= 0

c_e_x875_:
-1 x303
+1 x346
= 0

c_e_x876_:
-1 x325
+1 x347
= 0

c_e_x877_:
+1 x348
-1 x370
= 0

c_e_x878_:
+1 x349
-1 x392
= 0

c_e_x879_:
+1 x350
-1 x414
= 0

c_e_x880_:
+1 x351
-1 x436
= 0

c_e_x881_:
+1 x352
-1 x458
= 0

c_e_x882_:
+1 x353
-1 x480
= 0

c_e_x883_:
+1 x354
-1 x502
= 0

c_e_x884_:
+1 x355
-1 x524
= 0

c_e_x885_:
-1 x40
+1 x356
= 0

c_e_x886_:
-1 x62
+1 x357
= 0

c_e_x887_:
-1 x84
+1 x358
= 0

c_e_x888_:
-1 x106
+1 x359
= 0

c_e_x889_:
-1 x128
+1 x360
= 0

c_e_x890_:
-1 x150
+1 x361
= 0

c_e_x891_:
-1 x172
+1 x362
= 0

c_e_x892_:
-1 x194
+1 x363
= 0

c_e_x893_:
-1 x216
+1 x364
= 0

c_e_x894_:
-1 x238
+1 x365
= 0

c_e_x895_:
-1 x260
+1 x366
= 0

c_e_x896_:
-1 x282
+1 x367
= 0

c_e_x897_:
-1 x304
+1 x368
= 0

c_e_x898_:
-1 x326
+1 x369
= 0

c_e_x899_:
-1 x348
+1 x370
= 0

c_e_x900_:
+1 x371
-1 x393
= 0

c_e_x901_:
+1 x372
-1 x415
= 0

c_e_x902_:
+1 x373
-1 x437
= 0

c_e_x903_:
+1 x374
-1 x459
= 0

c_e_x904_:
+1 x375
-1 x481
= 0

c_e_x905_:
+1 x376
-1 x503
= 0

c_e_x906_:
+1 x377
-1 x525
= 0

c_e_x907_:
-1 x41
+1 x378
= 0

c_e_x908_:
-1 x63
+1 x379
= 0

c_e_x909_:
-1 x85
+1 x380
= 0

c_e_x910_:
-1 x107
+1 x381
= 0

c_e_x911_:
-1 x129
+1 x382
= 0

c_e_x912_:
-1 x151
+1 x383
= 0

c_e_x913_:
-1 x173
+1 x384
= 0

c_e_x914_:
-1 x195
+1 x385
= 0

c_e_x915_:
-1 x217
+1 x386
= 0

c_e_x916_:
-1 x239
+1 x387
= 0

c_e_x917_:
-1 x261
+1 x388
= 0

c_e_x918_:
-1 x283
+1 x389
= 0

c_e_x919_:
-1 x305
+1 x390
= 0

c_e_x920_:
-1 x327
+1 x391
= 0

c_e_x921_:
-1 x349
+1 x392
= 0

c_e_x922_:
-1 x371
+1 x393
= 0

c_e_x923_:
+1 x394
-1 x416
= 0

c_e_x924_:
+1 x395
-1 x438
= 0

c_e_x925_:
+1 x396
-1 x460
= 0

c_e_x926_:
+1 x397
-1 x482
= 0

c_e_x927_:
+1 x398
-1 x504
= 0

c_e_x928_:
+1 x399
-1 x526
= 0

c_e_x929_:
-1 x42
+1 x400
= 0

c_e_x930_:
-1 x64
+1 x401
= 0

c_e_x931_:
-1 x86
+1 x402
= 0

c_e_x932_:
-1 x108
+1 x403
= 0

c_e_x933_:
-1 x130
+1 x404
= 0

c_e_x934_:
-1 x152
+1 x405
= 0

c_e_x935_:
-1 x174
+1 x406
= 0

c_e_x936_:
-1 x196
+1 x407
= 0

c_e_x937_:
-1 x218
+1 x408
= 0

c_e_x938_:
-1 x240
+1 x409
= 0

c_e_x939_:
-1 x262
+1 x410
= 0

c_e_x940_:
-1 x284
+1 x411
= 0

c_e_x941_:
-1 x306
+1 x412
= 0

c_e_x942_:
-1 x328
+1 x413
= 0

c_e_x943_:
-1 x350
+1 x414
= 0

c_e_x944_:
-1 x372
+1 x415
= 0

c_e_x945_:
-1 x394
+1 x416
= 0

c_e_x946_:
+1 x417
-1 x439
= 0

c_e_x947_:
+1 x418
-1 x461
= 0

c_e_x948_:
+1 x419
-1 x483
= 0

c_e_x949_:
+1 x420
-1 x505
= 0

c_e_x950_:
+1 x421
-1 x527
= 0

c_e_x951_:
-1 x43
+1 x422
= 0

c_e_x952_:
-1 x65
+1 x423
= 0

c_e_x953_:
-1 x87
+1 x424
= 0

c_e_x954_:
-1 x109
+1 x425
= 0

c_e_x955_:
-1 x131
+1 x426
= 0

c_e_x956_:
-1 x153
+1 x427
= 0

c_e_x957_:
-1 x175
+1 x428
= 0

c_e_x958_:
-1 x197
+1 x429
= 0

c_e_x959_:
-1 x219
+1 x430
= 0

c_e_x960_:
-1 x241
+1 x431
= 0

c_e_x961_:
-1 x263
+1 x432
= 0

c_e_x962_:
-1 x285
+1 x433
= 0

c_e_x963_:
-1 x307
+1 x434
= 0

c_e_x964_:
-1 x329
+1 x435
= 0

c_e_x965_:
-1 x351
+1 x436
= 0

c_e_x966_:
-1 x373
+1 x437
= 0

c_e_x967_:
-1 x395
+1 x438
= 0

c_e_x968_:
-1 x417
+1 x439
= 0

c_e_x969_:
+1 x440
-1 x462
= 0

c_e_x970_:
+1 x441
-1 x484
= 0

c_e_x971_:
+1 x442
-1 x506
= 0

c_e_x972_:
+1 x443
-1 x528
= 0

c_e_x973_:
-1 x44
+1 x444
= 0

c_e_x974_:
-1 x66
+1 x445
= 0

c_e_x975_:
-1 x88
+1 x446
= 0

c_e_x976_:
-1 x110
+1 x447
= 0

c_e_x977_:
-1 x132
+1 x448
= 0

c_e_x978_:
-1 x154
+1 x449
= 0

c_e_x979_:
-1 x176
+1 x450
= 0

c_e_x980_:
-1 x198
+1 x451
= 0

c_e_x981_:
-1 x220
+1 x452
= 0

c_e_x982_:
-1 x242
+1 x453
= 0

c_e_x983_:
-1 x264
+1 x454
= 0

c_e_x984_:
-1 x286
+1 x455
= 0

c_e_x985_:
-1 x308
+1 x456
= 0

c_e_x986_:
-1 x330
+1 x457
= 0

c_e_x987_:
-1 x352
+1 x458
= 0

c_e_x988_:
-1 x374
+1 x459
= 0

c_e_x989_:
-1 x396
+1 x460
= 0

c_e_x990_:
-1 x418
+1 x461
= 0

c_e_x991_:
-1 x440
+1 x462
= 0

c_e_x992_:
+1 x463
-1 x485
= 0

c_e_x993_:
+1 x464
-1 x507
= 0

c_e_x994_:
+1 x465
-1 x529
= 0

c_e_x995_:
-1 x45
+1 x466
= 0

c_e_x996_:
-1 x67
+1 x467
= 0

c_e_x997_:
-1 x89
+1 x468
= 0

c_e_x998_:
-1 x111
+1 x469
= 0

c_e_x999_:
-1 x133
+1 x470
= 0

c_e_x1000_:
-1 x155
+1 x471
= 0

c_e_x1001_:
-1 x177
+1 x472
= 0

c_e_x1002_:
-1 x199
+1 x473
= 0

c_e_x1003_:
-1 x221
+1 x474
= 0

c_e_x1004_:
-1 x243
+1 x475
= 0

c_e_x1005_:
-1 x265
+1 x476
= 0

c_e_x1006_:
-1 x287
+1 x477
= 0

c_e_x1007_:
-1 x309
+1 x478
= 0

c_e_x1008_:
-1 x331
+1 x479
= 0

c_e_x1009_:
-1 x353
+1 x480
= 0

c_e_x1010_:
-1 x375
+1 x481
= 0

c_e_x1011_:
-1 x397
+1 x482
= 0

c_e_x1012_:
-1 x419
+1 x483
= 0

c_e_x1013_:
-1 x441
+1 x484
= 0

c_e_x1014_:
-1 x463
+1 x485
= 0

c_e_x1015_:
+1 x486
-1 x508
= 0

c_e_x1016_:
+1 x487
-1 x530
= 0

c_e_x1017_:
-1 x46
+1 x488
= 0

c_e_x1018_:
-1 x68
+1 x489
= 0

c_e_x1019_:
-1 x90
+1 x490
= 0

c_e_x1020_:
-1 x112
+1 x491
= 0

c_e_x1021_:
-1 x134
+1 x492
= 0

c_e_x1022_:
-1 x156
+1 x493
= 0

c_e_x1023_:
-1 x178
+1 x494
= 0

c_e_x1024_:
-1 x200
+1 x495
= 0

c_e_x1025_:
-1 x222
+1 x496
= 0

c_e_x1026_:
-1 x244
+1 x497
= 0

c_e_x1027_:
-1 x266
+1 x498
= 0

c_e_x1028_:
-1 x288
+1 x499
= 0

c_e_x1029_:
-1 x310
+1 x500
= 0

c_e_x1030_:
-1 x332
+1 x501
= 0

c_e_x1031_:
-1 x354
+1 x502
= 0

c_e_x1032_:
-1 x376
+1 x503
= 0

c_e_x1033_:
-1 x398
+1 x504
= 0

c_e_x1034_:
-1 x420
+1 x505
= 0

c_e_x1035_:
-1 x442
+1 x506
= 0

c_e_x1036_:
-1 x464
+1 x507
= 0

c_e_x1037_:
-1 x486
+1 x508
= 0

c_e_x1038_:
+1 x509
-1 x531
= 0

c_e_x1039_:
-1 x47
+1 x510
= 0

c_e_x1040_:
-1 x69
+1 x511
= 0

c_e_x1041_:
-1 x91
+1 x512
= 0

c_e_x1042_:
-1 x113
+1 x513
= 0

c_e_x1043_:
-1 x135
+1 x514
= 0

c_e_x1044_:
-1 x157
+1 x515
= 0

c_e_x1045_:
-1 x179
+1 x516
= 0

c_e_x1046_:
-1 x201
+1 x517
= 0

c_e_x1047_:
-1 x223
+1 x518
= 0

c_e_x1048_:
-1 x245
+1 x519
= 0

c_e_x1049_:
-1 x267
+1 x520
= 0

c_e_x1050_:
-1 x289
+1 x521
= 0

c_e_x1051_:
-1 x311
+1 x522
= 0

c_e_x1052_:
-1 x333
+1 x523
= 0

c_e_x1053_:
-1 x355
+1 x524
= 0

c_e_x1054_:
-1 x377
+1 x525
= 0

c_e_x1055_:
-1 x399
+1 x526
= 0

c_e_x1056_:
-1 x421
+1 x527
= 0

c_e_x1057_:
-1 x443
+1 x528
= 0

c_e_x1058_:
-1 x465
+1 x529
= 0

c_e_x1059_:
-1 x487
+1 x530
= 0

c_e_x1060_:
-1 x509
+1 x531
= 0

c_u_x1061_:
+1 x2
<= 8

c_u_x1062_:
+1 x3
<= 8

c_u_x1063_:
+1 x4
<= 8

c_u_x1064_:
+1 x5
<= 8

c_u_x1065_:
+1 x6
<= 8

c_u_x1066_:
+1 x7
<= 8

c_u_x1067_:
+1 x8
<= 8

c_u_x1068_:
+1 x9
<= 8

c_u_x1069_:
+1 x10
<= 8

c_u_x1070_:
+1 x11
<= 8

c_u_x1071_:
+1 x12
<= 8

c_u_x1072_:
+1 x13
<= 8

c_u_x1073_:
+1 x14
<= 8

c_u_x1074_:
+1 x15
<= 8

c_u_x1075_:
+1 x16
<= 8

c_u_x1076_:
+1 x17
<= 8

c_u_x1077_:
+1 x18
<= 8

c_u_x1078_:
+1 x19
<= 8

c_u_x1079_:
+1 x20
<= 8

c_u_x1080_:
+1 x21
<= 8

c_u_x1081_:
+1 x22
<= 8

c_u_x1082_:
+1 x23
<= 8

c_u_x1083_:
+1 x24
<= 8

c_l_x1084_:
+1 x2
>= 1

c_l_x1085_:
+1 x3
>= 1

c_l_x1086_:
+1 x4
>= 1

c_l_x1087_:
+1 x5
>= 1

c_l_x1088_:
+1 x6
>= 1

c_l_x1089_:
+1 x7
>= 1

c_l_x1090_:
+1 x8
>= 1

c_l_x1091_:
+1 x9
>= 1

c_l_x1092_:
+1 x10
>= 1

c_l_x1093_:
+1 x11
>= 1

c_l_x1094_:
+1 x12
>= 1

c_l_x1095_:
+1 x13
>= 1

c_l_x1096_:
+1 x14
>= 1

c_l_x1097_:
+1 x15
>= 1

c_l_x1098_:
+1 x16
>= 1

c_l_x1099_:
+1 x17
>= 1

c_l_x1100_:
+1 x18
>= 1

c_l_x1101_:
+1 x19
>= 1

c_l_x1102_:
+1 x20
>= 1

c_l_x1103_:
+1 x21
>= 1

c_l_x1104_:
+1 x22
>= 1

c_l_x1105_:
+1 x23
>= 1

c_l_x1106_:
+1 x24
>= 1

bounds
   0 <= x2 <= 21
   0 <= x3 <= 21
   0 <= x4 <= 21
   0 <= x5 <= 21
   0 <= x6 <= 21
   0 <= x7 <= 21
   0 <= x8 <= 21
   0 <= x9 <= 21
   0 <= x10 <= 21
   0 <= x11 <= 21
   0 <= x12 <= 21
   0 <= x13 <= 21
   0 <= x14 <= 21
   0 <= x15 <= 21
   0 <= x16 <= 21
   0 <= x17 <= 21
   0 <= x18 <= 21
   0 <= x19 <= 21
   0 <= x20 <= 21
   0 <= x21 <= 21
   0 <= x22 <= 21
   0 <= x23 <= 21
   0 <= x24 <= 21
   0 <= x26 <= 1
   0 <= x27 <= 1
   0 <= x28 <= 1
   0 <= x29 <= 1
   0 <= x30 <= 1
   0 <= x31 <= 1
   0 <= x32 <= 1
   0 <= x33 <= 1
   0 <= x34 <= 1
   0 <= x35 <= 1
   0 <= x36 <= 1
   0 <= x37 <= 1
   0 <= x38 <= 1
   0 <= x39 <= 1
   0 <= x40 <= 1
   0 <= x41 <= 1
   0 <= x42 <= 1
   0 <= x43 <= 1
   0 <= x44 <= 1
   0 <= x45 <= 1
   0 <= x46 <= 1
   0 <= x47 <= 1
   0 <= x48 <= 1
   0 <= x49 <= 1
   0 <= x50 <= 1
   0 <= x51 <= 1
   0 <= x52 <= 1
   0 <= x53 <= 1
   0 <= x54 <= 1
   0 <= x55 <= 1
   0 <= x56 <= 1
   0 <= x57 <= 1
   0 <= x58 <= 1
   0 <= x59 <= 1
   0 <= x60 <= 1
   0 <= x61 <= 1
   0 <= x62 <= 1
   0 <= x63 <= 1
   0 <= x64 <= 1
   0 <= x65 <= 1
   0 <= x66 <= 1
   0 <= x67 <= 1
   0 <= x68 <= 1
   0 <= x69 <= 1
   0 <= x70 <= 1
   0 <= x71 <= 1
   0 <= x72 <= 1
   0 <= x73 <= 1
   0 <= x74 <= 1
   0 <= x75 <= 1
   0 <= x76 <= 1
   0 <= x77 <= 1
   0 <= x78 <= 1
   0 <= x79 <= 1
   0 <= x80 <= 1
   0 <= x81 <= 1
   0 <= x82 <= 1
   0 <= x83 <= 1
   0 <= x84 <= 1
   0 <= x85 <= 1
   0 <= x86 <= 1
   0 <= x87 <= 1
   0 <= x88 <= 1
   0 <= x89 <= 1
   0 <= x90 <= 1
   0 <= x91 <= 1
   0 <= x92 <= 1
   0 <= x93 <= 1
   0 <= x94 <= 1
   0 <= x95 <= 1
   0 <= x96 <= 1
   0 <= x97 <= 1
   0 <= x98 <= 1
   0 <= x99 <= 1
   0 <= x100 <= 1
   0 <= x101 <= 1
   0 <= x102 <= 1
   0 <= x103 <= 1
   0 <= x104 <= 1
   0 <= x105 <= 1
   0 <= x106 <= 1
   0 <= x107 <= 1
   0 <= x108 <= 1
   0 <= x109 <= 1
   0 <= x110 <= 1
   0 <= x111 <= 1
   0 <= x112 <= 1
   0 <= x113 <= 1
   0 <= x114 <= 1
   0 <= x115 <= 1
   0 <= x116 <= 1
   0 <= x117 <= 1
   0 <= x118 <= 1
   0 <= x119 <= 1
   0 <= x120 <= 1
   0 <= x121 <= 1
   0 <= x122 <= 1
   0 <= x123 <= 1
   0 <= x124 <= 1
   0 <= x125 <= 1
   0 <= x126 <= 1
   0 <= x127 <= 1
   0 <= x128 <= 1
   0 <= x129 <= 1
   0 <= x130 <= 1
   0 <= x131 <= 1
   0 <= x132 <= 1
   0 <= x133 <= 1
   0 <= x134 <= 1
   0 <= x135 <= 1
   0 <= x136 <= 1
   0 <= x137 <= 1
   0 <= x138 <= 1
   0 <= x139 <= 1
   0 <= x140 <= 1
   0 <= x141 <= 1
   0 <= x142 <= 1
   0 <= x143 <= 1
   0 <= x144 <= 1
   0 <= x145 <= 1
   0 <= x146 <= 1
   0 <= x147 <= 1
   0 <= x148 <= 1
   0 <= x149 <= 1
   0 <= x150 <= 1
   0 <= x151 <= 1
   0 <= x152 <= 1
   0 <= x153 <= 1
   0 <= x154 <= 1
   0 <= x155 <= 1
   0 <= x156 <= 1
   0 <= x157 <= 1
   0 <= x158 <= 1
   0 <= x159 <= 1
   0 <= x160 <= 1
   0 <= x161 <= 1
   0 <= x162 <= 1
   0 <= x163 <= 1
   0 <= x164 <= 1
   0 <= x165 <= 1
   0 <= x166 <= 1
   0 <= x167 <= 1
   0 <= x168 <= 1
   0 <= x169 <= 1
   0 <= x170 <= 1
   0 <= x171 <= 1
   0 <= x172 <= 1
   0 <= x173 <= 1
   0 <= x174 <= 1
   0 <= x175 <= 1
   0 <= x176 <= 1
   0 <= x177 <= 1
   0 <= x178 <= 1
   0 <= x179 <= 1
   0 <= x180 <= 1
   0 <= x181 <= 1
   0 <= x182 <= 1
   0 <= x183 <= 1
   0 <= x184 <= 1
   0 <= x185 <= 1
   0 <= x186 <= 1
   0 <= x187 <= 1
   0 <= x188 <= 1
   0 <= x189 <= 1
   0 <= x190 <= 1
   0 <= x191 <= 1
   0 <= x192 <= 1
   0 <= x193 <= 1
   0 <= x194 <= 1
   0 <= x195 <= 1
   0 <= x196 <= 1
   0 <= x197 <= 1
   0 <= x198 <= 1
   0 <= x199 <= 1
   0 <= x200 <= 1
   0 <= x201 <= 1
   0 <= x202 <= 1
   0 <= x203 <= 1
   0 <= x204 <= 1
   0 <= x205 <= 1
   0 <= x206 <= 1
   0 <= x207 <= 1
   0 <= x208 <= 1
   0 <= x209 <= 1
   0 <= x210 <= 1
   0 <= x211 <= 1
   0 <= x212 <= 1
   0 <= x213 <= 1
   0 <= x214 <= 1
   0 <= x215 <= 1
   0 <= x216 <= 1
   0 <= x217 <= 1
   0 <= x218 <= 1
   0 <= x219 <= 1
   0 <= x220 <= 1
   0 <= x221 <= 1
   0 <= x222 <= 1
   0 <= x223 <= 1
   0 <= x224 <= 1
   0 <= x225 <= 1
   0 <= x226 <= 1
   0 <= x227 <= 1
   0 <= x228 <= 1
   0 <= x229 <= 1
   0 <= x230 <= 1
   0 <= x231 <= 1
   0 <= x232 <= 1
   0 <= x233 <= 1
   0 <= x234 <= 1
   0 <= x235 <= 1
   0 <= x236 <= 1
   0 <= x237 <= 1
   0 <= x238 <= 1
   0 <= x239 <= 1
   0 <= x240 <= 1
   0 <= x241 <= 1
   0 <= x242 <= 1
   0 <= x243 <= 1
   0 <= x244 <= 1
   0 <= x245 <= 1
   0 <= x246 <= 1
   0 <= x247 <= 1
   0 <= x248 <= 1
   0 <= x249 <= 1
   0 <= x250 <= 1
   0 <= x251 <= 1
   0 <= x252 <= 1
   0 <= x253 <= 1
   0 <= x254 <= 1
   0 <= x255 <= 1
   0 <= x256 <= 1
   0 <= x257 <= 1
   0 <= x258 <= 1
   0 <= x259 <= 1
   0 <= x260 <= 1
   0 <= x261 <= 1
   0 <= x262 <= 1
   0 <= x263 <= 1
   0 <= x264 <= 1
   0 <= x265 <= 1
   0 <= x266 <= 1
   0 <= x267 <= 1
   0 <= x268 <= 1
   0 <= x269 <= 1
   0 <= x270 <= 1
   0 <= x271 <= 1
   0 <= x272 <= 1
   0 <= x273 <= 1
   0 <= x274 <= 1
   0 <= x275 <= 1
   0 <= x276 <= 1
   0 <= x277 <= 1
   0 <= x278 <= 1
   0 <= x279 <= 1
   0 <= x280 <= 1
   0 <= x281 <= 1
   0 <= x282 <= 1
   0 <= x283 <= 1
   0 <= x284 <= 1
   0 <= x285 <= 1
   0 <= x286 <= 1
   0 <= x287 <= 1
   0 <= x288 <= 1
   0 <= x289 <= 1
   0 <= x290 <= 1
   0 <= x291 <= 1
   0 <= x292 <= 1
   0 <= x293 <= 1
   0 <= x294 <= 1
   0 <= x295 <= 1
   0 <= x296 <= 1
   0 <= x297 <= 1
   0 <= x298 <= 1
   0 <= x299 <= 1
   0 <= x300 <= 1
   0 <= x301 <= 1
   0 <= x302 <= 1
   0 <= x303 <= 1
   0 <= x304 <= 1
   0 <= x305 <= 1
   0 <= x306 <= 1
   0 <= x307 <= 1
   0 <= x308 <= 1
   0 <= x309 <= 1
   0 <= x310 <= 1
   0 <= x311 <= 1
   0 <= x312 <= 1
   0 <= x313 <= 1
   0 <= x314 <= 1
   0 <= x315 <= 1
   0 <= x316 <= 1
   0 <= x317 <= 1
   0 <= x318 <= 1
   0 <= x319 <= 1
   0 <= x320 <= 1
   0 <= x321 <= 1
   0 <= x322 <= 1
   0 <= x323 <= 1
   0 <= x324 <= 1
   0 <= x325 <= 1
   0 <= x326 <= 1
   0 <= x327 <= 1
   0 <= x328 <= 1
   0 <= x329 <= 1
   0 <= x330 <= 1
   0 <= x331 <= 1
   0 <= x332 <= 1
   0 <= x333 <= 1
   0 <= x334 <= 1
   0 <= x335 <= 1
   0 <= x336 <= 1
   0 <= x337 <= 1
   0 <= x338 <= 1
   0 <= x339 <= 1
   0 <= x340 <= 1
   0 <= x341 <= 1
   0 <= x342 <= 1
   0 <= x343 <= 1
   0 <= x344 <= 1
   0 <= x345 <= 1
   0 <= x346 <= 1
   0 <= x347 <= 1
   0 <= x348 <= 1
   0 <= x349 <= 1
   0 <= x350 <= 1
   0 <= x351 <= 1
   0 <= x352 <= 1
   0 <= x353 <= 1
   0 <= x354 <= 1
   0 <= x355 <= 1
   0 <= x356 <= 1
   0 <= x357 <= 1
   0 <= x358 <= 1
   0 <= x359 <= 1
   0 <= x360 <= 1
   0 <= x361 <= 1
   0 <= x362 <= 1
   0 <= x363 <= 1
   0 <= x364 <= 1
   0 <= x365 <= 1
   0 <= x366 <= 1
   0 <= x367 <= 1
   0 <= x368 <= 1
   0 <= x369 <= 1
   0 <= x370 <= 1
   0 <= x371 <= 1
   0 <= x372 <= 1
   0 <= x373 <= 1
   0 <= x374 <= 1
   0 <= x375 <= 1
   0 <= x376 <= 1
   0 <= x377 <= 1
   0 <= x378 <= 1
   0 <= x379 <= 1
   0 <= x380 <= 1
   0 <= x381 <= 1
   0 <= x382 <= 1
   0 <= x383 <= 1
   0 <= x384 <= 1
   0 <= x385 <= 1
   0 <= x386 <= 1
   0 <= x387 <= 1
   0 <= x388 <= 1
   0 <= x389 <= 1
   0 <= x390 <= 1
   0 <= x391 <= 1
   0 <= x392 <= 1
   0 <= x393 <= 1
   0 <= x394 <= 1
   0 <= x395 <= 1
   0 <= x396 <= 1
   0 <= x397 <= 1
   0 <= x398 <= 1
   0 <= x399 <= 1
   0 <= x400 <= 1
   0 <= x401 <= 1
   0 <= x402 <= 1
   0 <= x403 <= 1
   0 <= x404 <= 1
   0 <= x405 <= 1
   0 <= x406 <= 1
   0 <= x407 <= 1
   0 <= x408 <= 1
   0 <= x409 <= 1
   0 <= x410 <= 1
   0 <= x411 <= 1
   0 <= x412 <= 1
   0 <= x413 <= 1
   0 <= x414 <= 1
   0 <= x415 <= 1
   0 <= x416 <= 1
   0 <= x417 <= 1
   0 <= x418 <= 1
   0 <= x419 <= 1
   0 <= x420 <= 1
   0 <= x421 <= 1
   0 <= x422 <= 1
   0 <= x423 <= 1
   0 <= x424 <= 1
   0 <= x425 <= 1
   0 <= x426 <= 1
   0 <= x427 <= 1
   0 <= x428 <= 1
   0 <= x429 <= 1
   0 <= x430 <= 1
   0 <= x431 <= 1
   0 <= x432 <= 1
   0 <= x433 <= 1
   0 <= x434 <= 1
   0 <= x435 <= 1
   0 <= x436 <= 1
   0 <= x437 <= 1
   0 <= x438 <= 1
   0 <= x439 <= 1
   0 <= x440 <= 1
   0 <= x441 <= 1
   0 <= x442 <= 1
   0 <= x443 <= 1
   0 <= x444 <= 1
   0 <= x445 <= 1
   0 <= x446 <= 1
   0 <= x447 <= 1
   0 <= x448 <= 1
   0 <= x449 <= 1
   0 <= x450 <= 1
   0 <= x451 <= 1
   0 <= x452 <= 1
   0 <= x453 <= 1
   0 <= x454 <= 1
   0 <= x455 <= 1
   0 <= x456 <= 1
   0 <= x457 <= 1
   0 <= x458 <= 1
   0 <= x459 <= 1
   0 <= x460 <= 1
   0 <= x461 <= 1
   0 <= x462 <= 1
   0 <= x463 <= 1
   0 <= x464 <= 1
   0 <= x465 <= 1
   0 <= x466 <= 1
   0 <= x467 <= 1
   0 <= x468 <= 1
   0 <= x469 <= 1
   0 <= x470 <= 1
   0 <= x471 <= 1
   0 <= x472 <= 1
   0 <= x473 <= 1
   0 <= x474 <= 1
   0 <= x475 <= 1
   0 <= x476 <= 1
   0 <= x477 <= 1
   0 <= x478 <= 1
   0 <= x479 <= 1
   0 <= x480 <= 1
   0 <= x481 <= 1
   0 <= x482 <= 1
   0 <= x483 <= 1
   0 <= x484 <= 1
   0 <= x485 <= 1
   0 <= x486 <= 1
   0 <= x487 <= 1
   0 <= x488 <= 1
   0 <= x489 <= 1
   0 <= x490 <= 1
   0 <= x491 <= 1
   0 <= x492 <= 1
   0 <= x493 <= 1
   0 <= x494 <= 1
   0 <= x495 <= 1
   0 <= x496 <= 1
   0 <= x497 <= 1
   0 <= x498 <= 1
   0 <= x499 <= 1
   0 <= x500 <= 1
   0 <= x501 <= 1
   0 <= x502 <= 1
   0 <= x503 <= 1
   0 <= x504 <= 1
   0 <= x505 <= 1
   0 <= x506 <= 1
   0 <= x507 <= 1
   0 <= x508 <= 1
   0 <= x509 <= 1
   0 <= x510 <= 1
   0 <= x511 <= 1
   0 <= x512 <= 1
   0 <= x513 <= 1
   0 <= x514 <= 1
   0 <= x515 <= 1
   0 <= x516 <= 1
   0 <= x517 <= 1
   0 <= x518 <= 1
   0 <= x519 <= 1
   0 <= x520 <= 1
   0 <= x521 <= 1
   0 <= x522 <= 1
   0 <= x523 <= 1
   0 <= x524 <= 1
   0 <= x525 <= 1
   0 <= x526 <= 1
   0 <= x527 <= 1
   0 <= x528 <= 1
   0 <= x529 <= 1
   0 <= x530 <= 1
   0 <= x531 <= 1
general
  x2
  x3
  x4
  x5
  x6
  x7
  x8
  x9
  x10
  x11
  x12
  x13
  x14
  x15
  x16
  x17
  x18
  x19
  x20
  x21
  x22
  x23
  x24
binary
  x26
  x27
  x28
  x29
  x30
  x31
  x32
  x33
  x34
  x35
  x36
  x37
  x38
  x39
  x40
  x41
  x42
  x43
  x44
  x45
  x46
  x47
  x48
  x49
  x50
  x51
  x52
  x53
  x54
  x55
  x56
  x57
  x58
  x59
  x60
  x61
  x62
  x63
  x64
  x65
  x66
  x67
  x68
  x69
  x70
  x71
  x72
  x73
  x74
  x75
  x76
  x77
  x78
  x79
  x80
  x81
  x82
  x83
  x84
  x85
  x86
  x87
  x88
  x89
  x90
  x91
  x92
  x93
  x94
  x95
  x96
  x97
  x98
  x99
  x100
  x101
  x102
  x103
  x104
  x105
  x106
  x107
  x108
  x109
  x110
  x111
  x112
  x113
  x114
  x115
  x116
  x117
  x118
  x119
  x120
  x121
  x122
  x123
  x124
  x125
  x126
  x127
  x128
  x129
  x130
  x131
  x132
  x133
  x134
  x135
  x136
  x137
  x138
  x139
  x140
  x141
  x142
  x143
  x144
  x145
  x146
  x147
  x148
  x149
  x150
  x151
  x152
  x153
  x154
  x155
  x156
  x157
  x158
  x159
  x160
  x161
  x162
  x163
  x164
  x165
  x166
  x167
  x168
  x169
  x170
  x171
  x172
  x173
  x174
  x175
  x176
  x177
  x178
  x179
  x180
  x181
  x182
  x183
  x184
  x185
  x186
  x187
  x188
  x189
  x190
  x191
  x192
  x193
  x194
  x195
  x196
  x197
  x198
  x199
  x200
  x201
  x202
  x203
  x204
  x205
  x206
  x207
  x208
  x209
  x210
  x211
  x212
  x213
  x214
  x215
  x216
  x217
  x218
  x219
  x220
  x221
  x222
  x223
  x224
  x225
  x226
  x227
  x228
  x229
  x230
  x231
  x232
  x233
  x234
  x235
  x236
  x237
  x238
  x239
  x240
  x241
  x242
  x243
  x244
  x245
  x246
  x247
  x248
  x249
  x250
  x251
  x252
  x253
  x254
  x255
  x256
  x257
  x258
  x259
  x260
  x261
  x262
  x263
  x264
  x265
  x266
  x267
  x268
  x269
  x270
  x271
  x272
  x273
  x274
  x275
  x276
  x277
  x278
  x279
  x280
  x281
  x282
  x283
  x284
  x285
  x286
  x287
  x288
  x289
  x290
  x291
  x292
  x293
  x294
  x295
  x296
  x297
  x298
  x299
  x300
  x301
  x302
  x303
  x304
  x305
  x306
  x307
  x308
  x309
  x310
  x311
  x312
  x313
  x314
  x315
  x316
  x317
  x318
  x319
  x320
  x321
  x322
  x323
  x324
  x325
  x326
  x327
  x328
  x329
  x330
  x331
  x332
  x333
  x334
  x335
  x336
  x337
  x338
  x339
  x340
  x341
  x342
  x343
  x344
  x345
  x346
  x347
  x348
  x349
  x350
  x351
  x352
  x353
  x354
  x355
  x356
  x357
  x358
  x359
  x360
  x361
  x362
  x363
  x364
  x365
  x366
  x367
  x368
  x369
  x370
  x371
  x372
  x373
  x374
  x375
  x376
  x377
  x378
  x379
  x380
  x381
  x382
  x383
  x384
  x385
  x386
  x387
  x388
  x389
  x390
  x391
  x392
  x393
  x394
  x395
  x396
  x397
  x398
  x399
  x400
  x401
  x402
  x403
  x404
  x405
  x406
  x407
  x408
  x409
  x410
  x411
  x412
  x413
  x414
  x415
  x416
  x417
  x418
  x419
  x420
  x421
  x422
  x423
  x424
  x425
  x426
  x427
  x428
  x429
  x430
  x431
  x432
  x433
  x434
  x435
  x436
  x437
  x438
  x439
  x440
  x441
  x442
  x443
  x444
  x445
  x446
  x447
  x448
  x449
  x450
  x451
  x452
  x453
  x454
  x455
  x456
  x457
  x458
  x459
  x460
  x461
  x462
  x463
  x464
  x465
  x466
  x467
  x468
  x469
  x470
  x471
  x472
  x473
  x474
  x475
  x476
  x477
  x478
  x479
  x480
  x481
  x482
  x483
  x484
  x485
  x486
  x487
  x488
  x489
  x490
  x491
  x492
  x493
  x494
  x495
  x496
  x497
  x498
  x499
  x500
  x501
  x502
  x503
  x504
  x505
  x506
  x507
  x508
  x509
  x510
  x511
  x512
  x513
  x514
  x515
  x516
  x517
  x518
  x519
  x520
  x521
  x522
  x523
  x524
  x525
  x526
  x527
  x528
  x529
  x530
  x531
end
